Data path: /scratch/opt/lxu/CFLG/benchmarks/random_B
Instance: r_30_0.1_54.txt
Result path: /scratch/opt/lxu/CFLG/results/random_B
Solver: Gurobi
Time limit: 7200
Formulation: LEFPAI
Cover: Large
julia --project=. src/main.jl /scratch/opt/lxu/CFLG/benchmarks/random_B r_30_0.1_54.txt /scratch/opt/lxu/CFLG/results/random_B Gurobi 7200 LEFPAI Large
The latest version of Julia in the `release` channel is 1.11.5+0.x64.linux.gnu. You currently have `1.11.4+0.x64.linux.gnu` installed. Run:

  juliaup update

in your terminal shell to install Julia 1.11.5+0.x64.linux.gnu and update the `release` channel to that version.
/scratch/opt/lxu/CFLG/benchmarks/random_B Gurobi 7200.0 /scratch/opt/lxu/CFLG/results/random_B r_30_0.1_54.txt LEFPAI Large
/scratch/opt/lxu/CFLG/benchmarks/random_B/r_30_0.1_54.txt

 read graph
data loaded

problem_graph/original graph: node: 30/30 edge: 54/54 dlt: 1.1988431583223897 break_avg_len: 0.5994215791611949 break_max_len: 0.9919704436735612Vbar/V, Ebar/E(27, 30, 51, 54)
(Dict{Int64, Bool}(21 => 1, 25 => 1, 2 => 1), Dict(21 => 0.31110382784554996, 25 => 0.5525841233146045, 2 => 0.6869985263122785))Set parameter TokenServer to value "solice01.zib.de"
Set parameter Threads to value 1
Set parameter OutputFlag to value 1
Gurobi Optimizer version 12.0.1 build v12.0.1rc0 (linux64 - "Debian GNU/Linux 12 (bookworm)")

CPU model: Intel(R) Xeon(R) Gold 5122 CPU @ 3.60GHz, instruction set [SSE2|AVX|AVX2|AVX512]
Thread count: 8 physical cores, 16 logical processors, using up to 1 threads

Non-default parameters:
Threads  1

Optimize a model with 84 rows, 162 columns and 270 nonzeros
Model fingerprint: 0x9e0fb057
Coefficient statistics:
  Matrix range     [1e+00, 1e+00]
  Objective range  [1e+00, 1e+00]
  Bounds range     [1e+00, 1e+00]
  RHS range        [1e+00, 1e+00]
Presolve removed 84 rows and 162 columns
Presolve time: 0.00s
Presolve: All rows and columns removed
Iteration    Objective       Primal Inf.    Dual Inf.      Time
       0    3.0000000e+00   0.000000e+00   0.000000e+00      0s

Solved in 0 iterations and 0.00 seconds (0.00 work units)
Optimal objective  3.000000000e+00

User-callback calls 35, time in user-callback 0.00 sec
elapsed CPU time: 1.610279 seconds
Set parameter TokenServer to value "solice01.zib.de"
Set parameter Threads to value 1
Set parameter OutputFlag to value 1
Set parameter MIPGap to value 0.0001
Set parameter TimeLimit to value 7198.389721

 more cuts: false 1.1988431583223897 false
is_attach:trueformulation:LEFPAI0 54 0

 model loaded

Min ye[1] + ye[2] + ye[3] + ye[4] + ye[5] + ye[6] + ye[7] + ye[8] + ye[9] + ye[10] + ye[11] + ye[12] + ye[13] + ye[14] + ye[15] + ye[16] + ye[17] + ye[18] + ye[19] + ye[20] + ye[21] + ye[22] + ye[23] + ye[24] + ye[25] + ye[26] + ye[27] + ye[28] + ye[29] + ye[30] + [[...21 terms omitted...]] + yv[1] + yv[2] + yv[3] + yv[4] + yv[5] + yv[6] + yv[7] + yv[8] + yv[9] + yv[10] + yv[11] + yv[12] + yv[13] + yv[14] + yv[15] + yv[16] + yv[17] + yv[18] + yv[19] + yv[20] + yv[21] + yv[22] + yv[23] + yv[24] + yv[25] + yv[26] + yv[27] + yv[28] + yv[29] + yv[30]
Subject to
 q[1,a] ≥ 0
 q[2,a] ≥ 0
 q[3,a] ≥ 0
 q[4,a] ≥ 0
 q[5,a] ≥ 0
 q[6,a] ≥ 0
 q[7,a] ≥ 0
 q[8,a] ≥ 0
 q[9,a] ≥ 0
 q[10,a] ≥ 0
 q[11,a] ≥ 0
 q[12,a] ≥ 0
 q[13,a] ≥ 0
 q[14,a] ≥ 0
 q[15,a] ≥ 0
 q[16,a] ≥ 0
 q[17,a] ≥ 0
 q[18,a] ≥ 0
 q[19,a] ≥ 0
 q[20,a] ≥ 0
 q[21,a] ≥ 0
 q[22,a] ≥ 0
 q[23,a] ≥ 0
 q[24,a] ≥ 0
 q[25,a] ≥ 0
 q[26,a] ≥ 0
 q[27,a] ≥ 0
 q[28,a] ≥ 0
 q[29,a] ≥ 0
 q[30,a] ≥ 0
 q[31,a] ≥ 0
 q[32,a] ≥ 0
 q[33,a] ≥ 0
 q[34,a] ≥ 0
 q[35,a] ≥ 0
 q[36,a] ≥ 0
 q[37,a] ≥ 0
 q[38,a] ≥ 0
 q[39,a] ≥ 0
 q[40,a] ≥ 0
 q[41,a] ≥ 0
 q[42,a] ≥ 0
 q[43,a] ≥ 0
 q[44,a] ≥ 0
 q[45,a] ≥ 0
 q[46,a] ≥ 0
 q[47,a] ≥ 0
 q[48,a] ≥ 0
 q[49,a] ≥ 0
 q[50,a] ≥ 0
[[...3065 constraints skipped...]]
 q[41,a] - q[41,b] = 0
 q[42,a] - q[42,b] = 0
 q[43,a] - q[43,b] = 0
 q[44,a] - q[44,b] = 0
 q[45,a] - q[45,b] = 0
 q[46,a] - q[46,b] = 0
 q[47,a] - q[47,b] = 0
 q[48,a] - q[48,b] = 0
 q[49,a] - q[49,b] = 0
 q[50,a] - q[50,b] = 0
 q[51,a] - q[51,b] = 0
 q[52,a] - q[52,b] = 0
 q[53,a] - q[53,b] = 0
 q[54,a] - q[54,b] = 0
 x[1] + ze[1,(28, :b)] + ze[1,(36, :b)] + ze[1,(52, :a)] + ze[1,(28, :a)] + ze[1,(23, :a)] + ze[1,(39, :b)] + ze[1,(7, :b)] + ze[1,(41, :a)] + ze[1,(11, :a)] + ze[1,(36, :a)] + ze[1,(39, :a)] + ze[1,(7, :a)] + ze[1,(25, :a)] + ze[1,(27, :b)] + ze[1,(18, :b)] + ze[1,(26, :b)] + ze[1,(16, :b)] + ze[1,(50, :a)] + ze[1,(2, :a)] + ze[1,(27, :a)] + ze[1,(18, :a)] + ze[1,(26, :a)] + ze[1,(42, :a)] + ze[1,(19, :b)] + ze[1,(16, :a)] + ze[1,(20, :a)] + ze[1,(19, :a)] + ze[1,(49, :a)] + ze[1,(44, :a)] + ze[1,(46, :b)] + ze[1,(31, :a)] + ze[1,(29, :a)] + ze[1,(38, :b)] + ze[1,(38, :a)] + ze[1,(17, :b)] + ze[1,(1, :b)] + ze[1,(14, :b)] + ze[1,(8, :a)] + ze[1,(17, :a)] + ze[1,(37, :a)] + ze[1,(1, :a)] + ze[1,(53, :a)] + ze[1,(22, :a)] + ze[1,(3, :b)] + ze[1,(51, :b)] + ze[1,(14, :a)] + ze[1,(3, :a)] + ze[1,(48, :b)] + ze[1,(15, :b)] + ze[1,(5, :b)] + ze[1,(15, :a)] + ze[1,(6, :b)] + ze[1,(35, :a)] + ze[1,(6, :a)] + ze[1,(13, :b)] + ze[1,(4, :b)] + ze[1,(13, :a)] + ze[1,(4, :a)] + ze[1,(54, :a)] = 1
 x[2] + ze[2,(23, :b)] + ze[2,(41, :b)] + ze[2,(43, :b)] + ze[2,(11, :b)] + ze[2,(36, :b)] + ze[2,(12, :a)] + ze[2,(25, :b)] + ze[2,(43, :a)] + ze[2,(11, :a)] + ze[2,(36, :a)] + ze[2,(10, :b)] + ze[2,(27, :b)] + ze[2,(42, :b)] + ze[2,(50, :a)] + ze[2,(2, :a)] + ze[2,(10, :a)] + ze[2,(19, :b)] + ze[2,(49, :b)] + ze[2,(16, :a)] + ze[2,(44, :b)] + ze[2,(31, :b)] + ze[2,(9, :b)] + ze[2,(29, :b)] + ze[2,(31, :a)] + ze[2,(9, :a)] + ze[2,(46, :a)] + ze[2,(17, :b)] + ze[2,(37, :b)] + ze[2,(1, :b)] + ze[2,(22, :b)] + ze[2,(47, :b)] + ze[2,(17, :a)] + ze[2,(37, :a)] + ze[2,(1, :a)] + ze[2,(51, :b)] + ze[2,(47, :a)] + ze[2,(33, :b)] + ze[2,(14, :a)] + ze[2,(40, :b)] + ze[2,(48, :b)] + ze[2,(51, :a)] + ze[2,(33, :a)] + ze[2,(40, :a)] + ze[2,(48, :a)] + ze[2,(35, :b)] + ze[2,(15, :a)] + ze[2,(35, :a)] + ze[2,(30, :a)] + ze[2,(32, :a)] + ze[2,(4, :b)] + ze[2,(4, :a)] + ze[2,(13, :a)] + ze[2,(12, :b)] = 1
 x[3] + ze[3,(28, :b)] + ze[3,(41, :b)] + ze[3,(43, :b)] + ze[3,(11, :b)] + ze[3,(36, :b)] + ze[3,(52, :a)] + ze[3,(12, :a)] + ze[3,(41, :a)] + ze[3,(43, :a)] + ze[3,(11, :a)] + ze[3,(36, :a)] + ze[3,(25, :b)] + ze[3,(26, :b)] + ze[3,(42, :b)] + ze[3,(2, :a)] + ze[3,(10, :a)] + ze[3,(42, :a)] + ze[3,(49, :b)] + ze[3,(44, :b)] + ze[3,(9, :b)] + ze[3,(29, :b)] + ze[3,(49, :a)] + ze[3,(46, :b)] + ze[3,(31, :a)] + ze[3,(38, :b)] + ze[3,(46, :a)] + ze[3,(17, :b)] + ze[3,(37, :b)] + ze[3,(1, :b)] + ze[3,(3, :b)] + ze[3,(37, :a)] + ze[3,(53, :a)] + ze[3,(40, :b)] + ze[3,(3, :a)] + ze[3,(48, :b)] + ze[3,(51, :a)] + ze[3,(33, :a)] + ze[3,(40, :a)] + ze[3,(48, :a)] + ze[3,(35, :b)] + ze[3,(35, :a)] + ze[3,(4, :a)] + ze[3,(12, :b)] = 1
 x[4] + ze[4,(28, :b)] + ze[4,(18, :a)] + ze[4,(42, :a)] + ze[4,(23, :b)] + ze[4,(53, :b)] + ze[4,(22, :b)] + ze[4,(49, :b)] + ze[4,(41, :b)] + ze[4,(43, :b)] + ze[4,(16, :a)] + ze[4,(20, :a)] + ze[4,(44, :b)] + ze[4,(47, :b)] + ze[4,(28, :a)] + ze[4,(17, :a)] + ze[4,(1, :a)] + ze[4,(53, :a)] + ze[4,(22, :a)] + ze[4,(49, :a)] + ze[4,(39, :b)] + ze[4,(43, :a)] + ze[4,(29, :b)] + ze[4,(25, :b)] + ze[4,(46, :b)] + ze[4,(9, :a)] + ze[4,(14, :a)] + ze[4,(40, :b)] + ze[4,(15, :b)] + ze[4,(29, :a)] + ze[4,(38, :b)] + ze[4,(42, :b)] + ze[4,(16, :b)] + ze[4,(20, :b)] + ze[4,(13, :a)] + ze[4,(15, :a)] + ze[4,(21, :a)] + ze[4,(12, :b)] + ze[4,(38, :a)] = 1
 x[5] + ze[5,(8, :b)] + ze[5,(5, :b)] + ze[5,(5, :a)] + ze[5,(20, :b)] + ze[5,(6, :b)] + ze[5,(21, :a)] + ze[5,(21, :b)] + ze[5,(2, :b)] + ze[5,(54, :a)] + ze[5,(30, :b)] = 1
 x[6] + ze[6,(28, :b)] + ze[6,(38, :a)] + ze[6,(42, :a)] + ze[6,(23, :b)] + ze[6,(22, :b)] + ze[6,(49, :b)] + ze[6,(41, :b)] + ze[6,(43, :b)] + ze[6,(16, :a)] + ze[6,(11, :b)] + ze[6,(44, :b)] + ze[6,(47, :b)] + ze[6,(52, :a)] + ze[6,(9, :b)] + ze[6,(12, :a)] + ze[6,(17, :a)] + ze[6,(23, :a)] + ze[6,(53, :a)] + ze[6,(1, :a)] + ze[6,(49, :a)] + ze[6,(41, :a)] + ze[6,(43, :a)] + ze[6,(39, :b)] + ze[6,(44, :a)] + ze[6,(29, :b)] + ze[6,(9, :a)] + ze[6,(25, :b)] + ze[6,(46, :b)] + ze[6,(14, :a)] + ze[6,(40, :b)] + ze[6,(39, :a)] + ze[6,(38, :b)] + ze[6,(26, :b)] + ze[6,(42, :b)] + ze[6,(16, :b)] + ze[6,(13, :a)] + ze[6,(15, :a)] + ze[6,(10, :a)] + ze[6,(12, :b)] + ze[6,(18, :a)] = 1
 x[7] + ze[7,(20, :a)] + ze[7,(28, :a)] + ze[7,(22, :a)] + ze[7,(45, :a)] + ze[7,(34, :b)] + ze[7,(15, :b)] + ze[7,(21, :b)] + ze[7,(29, :a)] + ze[7,(34, :a)] + ze[7,(20, :b)] + ze[7,(21, :a)] + ze[7,(30, :b)] = 1
 x[8] + ze[8,(28, :b)] + ze[8,(41, :b)] + ze[8,(36, :b)] + ze[8,(28, :a)] + ze[8,(23, :a)] + ze[8,(39, :b)] + ze[8,(7, :b)] + ze[8,(25, :b)] + ze[8,(43, :a)] + ze[8,(39, :a)] + ze[8,(7, :a)] + ze[8,(25, :a)] + ze[8,(27, :b)] + ze[8,(18, :b)] + ze[8,(42, :b)] + ze[8,(16, :b)] + ze[8,(50, :a)] + ze[8,(2, :a)] + ze[8,(27, :a)] + ze[8,(18, :a)] + ze[8,(26, :a)] + ze[8,(42, :a)] + ze[8,(19, :b)] + ze[8,(16, :a)] + ze[8,(20, :a)] + ze[8,(44, :b)] + ze[8,(19, :a)] + ze[8,(49, :a)] + ze[8,(44, :a)] + ze[8,(46, :b)] + ze[8,(31, :a)] + ze[8,(29, :a)] + ze[8,(38, :b)] + ze[8,(38, :a)] + ze[8,(17, :b)] + ze[8,(1, :b)] + ze[8,(53, :b)] + ze[8,(14, :b)] + ze[8,(8, :a)] + ze[8,(17, :a)] + ze[8,(3, :b)] + ze[8,(1, :a)] + ze[8,(53, :a)] + ze[8,(22, :a)] + ze[8,(51, :b)] + ze[8,(14, :a)] + ze[8,(40, :b)] + ze[8,(48, :b)] + ze[8,(15, :b)] + ze[8,(15, :a)] + ze[8,(6, :a)] + ze[8,(13, :b)] + ze[8,(4, :b)] + ze[8,(13, :a)] + ze[8,(4, :a)] = 1
 x[9] + ze[9,(11, :b)] + ze[9,(36, :b)] + ze[9,(12, :a)] + ze[9,(11, :a)] + ze[9,(36, :a)] + ze[9,(34, :b)] + ze[9,(50, :b)] + ze[9,(7, :a)] + ze[9,(25, :a)] + ze[9,(27, :b)] + ze[9,(10, :b)] + ze[9,(18, :b)] + ze[9,(50, :a)] + ze[9,(2, :a)] + ze[9,(27, :a)] + ze[9,(10, :a)] + ze[9,(26, :a)] + ze[9,(19, :b)] + ze[9,(31, :b)] + ze[9,(9, :b)] + ze[9,(19, :a)] + ze[9,(31, :a)] + ze[9,(21, :b)] + ze[9,(46, :a)] + ze[9,(17, :b)] + ze[9,(37, :b)] + ze[9,(1, :b)] + ze[9,(14, :b)] + ze[9,(3, :b)] + ze[9,(37, :a)] + ze[9,(47, :a)] + ze[9,(33, :b)] + ze[9,(3, :a)] + ze[9,(48, :b)] + ze[9,(33, :a)] + ze[9,(40, :a)] + ze[9,(48, :a)] + ze[9,(35, :b)] + ze[9,(30, :b)] + ze[9,(32, :b)] + ze[9,(35, :a)] + ze[9,(30, :a)] + ze[9,(32, :a)] + ze[9,(6, :a)] + ze[9,(4, :b)] + ze[9,(13, :b)] + ze[9,(4, :a)] = 1
 x[10] + ze[10,(11, :b)] + ze[10,(36, :b)] + ze[10,(12, :a)] + ze[10,(39, :b)] + ze[10,(11, :a)] + ze[10,(36, :a)] + ze[10,(2, :b)] + ze[10,(7, :a)] + ze[10,(25, :a)] + ze[10,(18, :b)] + ze[10,(27, :b)] + ze[10,(16, :b)] + ze[10,(50, :a)] + ze[10,(2, :a)] + ze[10,(27, :a)] + ze[10,(18, :a)] + ze[10,(26, :a)] + ze[10,(10, :a)] + ze[10,(19, :b)] + ze[10,(16, :a)] + ze[10,(9, :b)] + ze[10,(19, :a)] + ze[10,(31, :a)] + ze[10,(46, :a)] + ze[10,(38, :a)] + ze[10,(24, :b)] + ze[10,(8, :b)] + ze[10,(17, :b)] + ze[10,(37, :b)] + ze[10,(1, :b)] + ze[10,(14, :b)] + ze[10,(3, :b)] + ze[10,(17, :a)] + ze[10,(37, :a)] + ze[10,(1, :a)] + ze[10,(51, :b)] + ze[10,(47, :a)] + ze[10,(14, :a)] + ze[10,(3, :a)] + ze[10,(48, :b)] + ze[10,(51, :a)] + ze[10,(33, :a)] + ze[10,(40, :a)] + ze[10,(48, :a)] + ze[10,(35, :b)] + ze[10,(15, :a)] + ze[10,(5, :a)] + ze[10,(35, :a)] + ze[10,(6, :a)] + ze[10,(4, :b)] + ze[10,(13, :b)] + ze[10,(4, :a)] + ze[10,(13, :a)] = 1
 x[11] + ze[11,(8, :b)] + ze[11,(8, :a)] + ze[11,(6, :b)] + ze[11,(7, :b)] + ze[11,(21, :b)] + ze[11,(2, :b)] + ze[11,(54, :a)] + ze[11,(30, :b)] = 1
 x[12] + ze[12,(43, :b)] + ze[12,(11, :b)] + ze[12,(36, :b)] + ze[12,(12, :a)] + ze[12,(39, :b)] + ze[12,(11, :a)] + ze[12,(36, :a)] + ze[12,(7, :a)] + ze[12,(10, :b)] + ze[12,(18, :b)] + ze[12,(27, :b)] + ze[12,(16, :b)] + ze[12,(50, :a)] + ze[12,(2, :a)] + ze[12,(10, :a)] + ze[12,(18, :a)] + ze[12,(19, :b)] + ze[12,(49, :b)] + ze[12,(16, :a)] + ze[12,(31, :b)] + ze[12,(9, :b)] + ze[12,(19, :a)] + ze[12,(29, :b)] + ze[12,(31, :a)] + ze[12,(46, :a)] + ze[12,(38, :a)] + ze[12,(17, :b)] + ze[12,(37, :b)] + ze[12,(1, :b)] + ze[12,(47, :b)] + ze[12,(3, :b)] + ze[12,(17, :a)] + ze[12,(37, :a)] + ze[12,(1, :a)] + ze[12,(51, :b)] + ze[12,(47, :a)] + ze[12,(33, :b)] + ze[12,(14, :a)] + ze[12,(3, :a)] + ze[12,(48, :b)] + ze[12,(51, :a)] + ze[12,(33, :a)] + ze[12,(40, :a)] + ze[12,(48, :a)] + ze[12,(35, :b)] + ze[12,(15, :a)] + ze[12,(35, :a)] + ze[12,(30, :a)] + ze[12,(32, :a)] + ze[12,(13, :b)] + ze[12,(4, :b)] + ze[12,(13, :a)] + ze[12,(4, :a)] + ze[12,(12, :b)] = 1
 x[13] + ze[13,(28, :b)] + ze[13,(36, :b)] + ze[13,(39, :b)] + ze[13,(7, :b)] + ze[13,(7, :a)] + ze[13,(25, :a)] + ze[13,(27, :b)] + ze[13,(18, :b)] + ze[13,(16, :b)] + ze[13,(50, :a)] + ze[13,(2, :a)] + ze[13,(27, :a)] + ze[13,(18, :a)] + ze[13,(26, :a)] + ze[13,(42, :a)] + ze[13,(19, :b)] + ze[13,(16, :a)] + ze[13,(19, :a)] + ze[13,(49, :a)] + ze[13,(46, :b)] + ze[13,(31, :a)] + ze[13,(38, :b)] + ze[13,(38, :a)] + ze[13,(17, :b)] + ze[13,(37, :b)] + ze[13,(1, :b)] + ze[13,(14, :b)] + ze[13,(8, :a)] + ze[13,(17, :a)] + ze[13,(3, :b)] + ze[13,(1, :a)] + ze[13,(53, :a)] + ze[13,(51, :b)] + ze[13,(14, :a)] + ze[13,(48, :b)] + ze[13,(51, :a)] + ze[13,(33, :a)] + ze[13,(48, :a)] + ze[13,(15, :a)] + ze[13,(6, :a)] + ze[13,(13, :b)] + ze[13,(4, :b)] + ze[13,(13, :a)] + ze[13,(4, :a)] = 1
 x[14] + ze[14,(28, :b)] + ze[14,(41, :b)] + ze[14,(43, :b)] + ze[14,(52, :a)] + ze[14,(39, :b)] + ze[14,(41, :a)] + ze[14,(43, :a)] + ze[14,(25, :b)] + ze[14,(50, :b)] + ze[14,(2, :b)] + ze[14,(7, :a)] + ze[14,(25, :a)] + ze[14,(27, :b)] + ze[14,(18, :b)] + ze[14,(42, :b)] + ze[14,(16, :b)] + ze[14,(50, :a)] + ze[14,(2, :a)] + ze[14,(27, :a)] + ze[14,(18, :a)] + ze[14,(42, :a)] + ze[14,(19, :b)] + ze[14,(49, :b)] + ze[14,(16, :a)] + ze[14,(44, :b)] + ze[14,(19, :a)] + ze[14,(29, :b)] + ze[14,(49, :a)] + ze[14,(46, :b)] + [[...2 terms omitted...]] + ze[14,(24, :b)] + ze[14,(8, :b)] + ze[14,(37, :b)] + ze[14,(1, :b)] + ze[14,(47, :b)] + ze[14,(14, :b)] + ze[14,(3, :b)] + ze[14,(17, :a)] + ze[14,(1, :a)] + ze[14,(53, :a)] + ze[14,(51, :b)] + ze[14,(14, :a)] + ze[14,(40, :b)] + ze[14,(51, :a)] + ze[14,(33, :a)] + ze[14,(5, :b)] + ze[14,(48, :a)] + ze[14,(15, :a)] + ze[14,(32, :b)] + ze[14,(5, :a)] + ze[14,(6, :b)] + ze[14,(6, :a)] + ze[14,(13, :b)] + ze[14,(4, :b)] + ze[14,(54, :b)] + ze[14,(13, :a)] + ze[14,(4, :a)] + ze[14,(54, :a)] + ze[14,(52, :b)] + ze[14,(12, :b)] = 1
 x[15] + ze[15,(23, :b)] + ze[15,(22, :b)] + ze[15,(49, :b)] + ze[15,(47, :b)] + ze[15,(43, :b)] + ze[15,(35, :a)] + ze[15,(20, :a)] + ze[15,(11, :b)] + ze[15,(44, :b)] + ze[15,(9, :b)] + ze[15,(41, :b)] + ze[15,(12, :a)] + ze[15,(30, :a)] + ze[15,(28, :a)] + ze[15,(31, :b)] + ze[15,(37, :a)] + ze[15,(23, :a)] + ze[15,(22, :a)] + ze[15,(32, :a)] + ze[15,(29, :b)] + ze[15,(43, :a)] + ze[15,(11, :a)] + ze[15,(44, :a)] + ze[15,(36, :a)] + ze[15,(9, :a)] + ze[15,(33, :b)] + ze[15,(25, :b)] + ze[15,(40, :b)] + ze[15,(3, :a)] + ze[15,(39, :a)] + ze[15,(15, :b)] + ze[15,(29, :a)] + ze[15,(10, :b)] + ze[15,(42, :b)] + ze[15,(10, :a)] + ze[15,(12, :b)] = 1
 x[16] + ze[16,(38, :a)] + ze[16,(8, :b)] + ze[16,(5, :a)] + ze[16,(16, :a)] + ze[16,(45, :b)] + ze[16,(24, :a)] + ze[16,(8, :a)] + ze[16,(17, :a)] + ze[16,(1, :a)] + ze[16,(19, :a)] + ze[16,(39, :b)] + ze[16,(7, :b)] + ze[16,(14, :a)] + ze[16,(13, :b)] + ze[16,(2, :b)] + ze[16,(7, :a)] + ze[16,(18, :b)] + ze[16,(16, :b)] + ze[16,(13, :a)] + ze[16,(15, :a)] + ze[16,(18, :a)] + ze[16,(24, :b)] = 1
 x[17] + ze[17,(36, :b)] + ze[17,(52, :a)] + ze[17,(39, :b)] + ze[17,(41, :a)] + ze[17,(11, :a)] + ze[17,(36, :a)] + ze[17,(50, :b)] + ze[17,(7, :a)] + ze[17,(25, :a)] + ze[17,(27, :b)] + ze[17,(10, :b)] + ze[17,(26, :b)] + ze[17,(18, :b)] + ze[17,(16, :b)] + ze[17,(50, :a)] + ze[17,(2, :a)] + ze[17,(27, :a)] + ze[17,(18, :a)] + ze[17,(26, :a)] + ze[17,(19, :b)] + ze[17,(16, :a)] + ze[17,(31, :b)] + ze[17,(19, :a)] + ze[17,(31, :a)] + ze[17,(38, :a)] + ze[17,(17, :b)] + ze[17,(37, :b)] + ze[17,(1, :b)] + ze[17,(14, :b)] + ze[17,(3, :b)] + ze[17,(17, :a)] + ze[17,(37, :a)] + ze[17,(1, :a)] + ze[17,(33, :b)] + ze[17,(14, :a)] + ze[17,(3, :a)] + ze[17,(48, :b)] + ze[17,(33, :a)] + ze[17,(5, :b)] + ze[17,(48, :a)] + ze[17,(15, :a)] + ze[17,(32, :b)] + ze[17,(6, :b)] + ze[17,(35, :a)] + ze[17,(30, :a)] + ze[17,(32, :a)] + ze[17,(6, :a)] + ze[17,(4, :b)] + ze[17,(13, :b)] + ze[17,(4, :a)] + ze[17,(13, :a)] + ze[17,(54, :a)] = 1
 x[18] + ze[18,(28, :b)] + ze[18,(41, :b)] + ze[18,(43, :b)] + ze[18,(11, :b)] + ze[18,(52, :a)] + ze[18,(12, :a)] + ze[18,(28, :a)] + ze[18,(23, :a)] + ze[18,(39, :b)] + ze[18,(41, :a)] + ze[18,(43, :a)] + ze[18,(25, :b)] + ze[18,(39, :a)] + ze[18,(7, :a)] + ze[18,(25, :a)] + ze[18,(18, :b)] + ze[18,(26, :b)] + ze[18,(42, :b)] + ze[18,(16, :b)] + ze[18,(10, :a)] + ze[18,(18, :a)] + ze[18,(26, :a)] + ze[18,(27, :a)] + ze[18,(42, :a)] + ze[18,(49, :b)] + ze[18,(16, :a)] + ze[18,(20, :a)] + ze[18,(44, :b)] + ze[18,(9, :b)] + ze[18,(19, :a)] + ze[18,(29, :b)] + ze[18,(49, :a)] + ze[18,(44, :a)] + ze[18,(46, :b)] + ze[18,(29, :a)] + ze[18,(38, :b)] + ze[18,(46, :a)] + ze[18,(38, :a)] + ze[18,(53, :b)] + ze[18,(47, :b)] + ze[18,(14, :b)] + ze[18,(17, :a)] + ze[18,(1, :a)] + ze[18,(53, :a)] + ze[18,(22, :a)] + ze[18,(47, :a)] + ze[18,(14, :a)] + ze[18,(40, :b)] + ze[18,(15, :b)] + ze[18,(40, :a)] + ze[18,(35, :b)] + ze[18,(15, :a)] + ze[18,(6, :a)] + ze[18,(13, :b)] + ze[18,(13, :a)] + ze[18,(52, :b)] + ze[18,(12, :b)] = 1
 x[19] + ze[19,(28, :b)] + ze[19,(23, :b)] + ze[19,(41, :b)] + ze[19,(43, :b)] + ze[19,(11, :b)] + ze[19,(36, :b)] + ze[19,(52, :a)] + ze[19,(12, :a)] + ze[19,(23, :a)] + ze[19,(41, :a)] + ze[19,(43, :a)] + ze[19,(11, :a)] + ze[19,(36, :a)] + ze[19,(25, :b)] + ze[19,(39, :a)] + ze[19,(10, :b)] + ze[19,(26, :b)] + ze[19,(42, :b)] + ze[19,(2, :a)] + ze[19,(10, :a)] + ze[19,(42, :a)] + ze[19,(49, :b)] + ze[19,(44, :b)] + ze[19,(9, :b)] + ze[19,(31, :b)] + ze[19,(29, :b)] + ze[19,(49, :a)] + ze[19,(44, :a)] + ze[19,(46, :b)] + ze[19,(9, :a)] + ze[19,(31, :a)] + ze[19,(38, :b)] + ze[19,(46, :a)] + ze[19,(17, :b)] + ze[19,(37, :b)] + ze[19,(1, :b)] + ze[19,(22, :b)] + ze[19,(47, :b)] + ze[19,(3, :b)] + ze[19,(37, :a)] + ze[19,(53, :a)] + ze[19,(47, :a)] + ze[19,(33, :b)] + ze[19,(40, :b)] + ze[19,(3, :a)] + ze[19,(48, :b)] + ze[19,(51, :a)] + ze[19,(33, :a)] + ze[19,(40, :a)] + ze[19,(48, :a)] + ze[19,(35, :b)] + ze[19,(35, :a)] + ze[19,(30, :a)] + ze[19,(32, :a)] + ze[19,(4, :a)] + ze[19,(12, :b)] = 1
 x[20] + ze[20,(17, :b)] + ze[20,(37, :b)] + ze[20,(23, :b)] + ze[20,(19, :b)] + ze[20,(32, :b)] + ze[20,(49, :b)] + ze[20,(47, :b)] + ze[20,(43, :b)] + ze[20,(35, :a)] + ze[20,(11, :b)] + ze[20,(36, :b)] + ze[20,(22, :b)] + ze[20,(31, :b)] + ze[20,(9, :b)] + ze[20,(12, :a)] + ze[20,(30, :a)] + ze[20,(37, :a)] + ze[20,(51, :b)] + ze[20,(32, :a)] + ze[20,(29, :b)] + ze[20,(33, :b)] + ze[20,(11, :a)] + ze[20,(36, :a)] + ze[20,(31, :a)] + ze[20,(9, :a)] + ze[20,(3, :a)] + ze[20,(48, :b)] + ze[20,(34, :b)] + ze[20,(51, :a)] + ze[20,(4, :b)] + ze[20,(50, :b)] + ze[20,(33, :a)] + ze[20,(21, :b)] + ze[20,(10, :b)] + ze[20,(27, :b)] + ze[20,(48, :a)] + ze[20,(50, :a)] + ze[20,(10, :a)] + ze[20,(12, :b)] + ze[20,(30, :b)] = 1
 x[21] + ze[21,(30, :b)] + ze[21,(8, :b)] + ze[21,(37, :b)] + ze[21,(5, :a)] + ze[21,(45, :b)] + ze[21,(31, :b)] + ze[21,(30, :a)] + ze[21,(24, :a)] + ze[21,(32, :a)] + ze[21,(33, :b)] + ze[21,(45, :a)] + ze[21,(34, :b)] + ze[21,(51, :a)] + ze[21,(21, :b)] + ze[21,(2, :b)] + ze[21,(33, :a)] + ze[21,(10, :b)] + ze[21,(48, :a)] + ze[21,(34, :a)] + ze[21,(20, :b)] + ze[21,(21, :a)] + ze[21,(24, :b)] = 1
 x[22] + ze[22,(28, :b)] + ze[22,(19, :b)] + ze[22,(49, :b)] + ze[22,(6, :b)] + ze[22,(47, :b)] + ze[22,(16, :a)] + ze[22,(44, :b)] + ze[22,(11, :b)] + ze[22,(9, :b)] + ze[22,(12, :a)] + ze[22,(14, :b)] + ze[22,(17, :a)] + ze[22,(1, :a)] + ze[22,(53, :a)] + ze[22,(23, :a)] + ze[22,(49, :a)] + ze[22,(6, :a)] + ze[22,(47, :a)] + ze[22,(51, :b)] + ze[22,(44, :a)] + ze[22,(29, :b)] + ze[22,(46, :b)] + ze[22,(14, :a)] + ze[22,(40, :b)] + ze[22,(4, :b)] + ze[22,(39, :a)] + ze[22,(27, :b)] + ze[22,(38, :b)] + ze[22,(46, :a)] + ze[22,(5, :b)] + ze[22,(40, :a)] + ze[22,(35, :b)] + ze[22,(13, :a)] + ze[22,(15, :a)] + ze[22,(54, :a)] + ze[22,(50, :a)] + ze[22,(27, :a)] + ze[22,(12, :b)] + ze[22,(10, :a)] = 1
 x[23] + ze[23,(24, :b)] + ze[23,(8, :b)] + ze[23,(26, :a)] + ze[23,(1, :b)] + ze[23,(5, :a)] + ze[23,(6, :b)] + ze[23,(45, :b)] + ze[23,(24, :a)] + ze[23,(14, :b)] + ze[23,(8, :a)] + ze[23,(3, :b)] + ze[23,(7, :b)] + ze[23,(6, :a)] + ze[23,(45, :a)] + ze[23,(34, :b)] + ze[23,(54, :b)] + ze[23,(2, :b)] + ze[23,(21, :b)] + ze[23,(25, :a)] + ze[23,(5, :b)] + ze[23,(34, :a)] + ze[23,(4, :a)] + ze[23,(54, :a)] + ze[23,(2, :a)] + ze[23,(27, :a)] + ze[23,(30, :b)] = 1
 x[24] + ze[24,(28, :b)] + ze[24,(23, :b)] + ze[24,(41, :b)] + ze[24,(43, :b)] + ze[24,(11, :b)] + ze[24,(52, :a)] + ze[24,(12, :a)] + ze[24,(28, :a)] + ze[24,(23, :a)] + ze[24,(39, :b)] + ze[24,(41, :a)] + ze[24,(43, :a)] + ze[24,(11, :a)] + ze[24,(36, :a)] + ze[24,(25, :b)] + ze[24,(39, :a)] + ze[24,(25, :a)] + ze[24,(26, :b)] + ze[24,(42, :b)] + ze[24,(16, :b)] + ze[24,(10, :a)] + ze[24,(27, :a)] + ze[24,(26, :a)] + ze[24,(18, :a)] + ze[24,(42, :a)] + ze[24,(49, :b)] + ze[24,(20, :a)] + ze[24,(44, :b)] + ze[24,(9, :b)] + ze[24,(29, :b)] + ze[24,(49, :a)] + ze[24,(44, :a)] + ze[24,(46, :b)] + ze[24,(9, :a)] + ze[24,(29, :a)] + ze[24,(38, :b)] + ze[24,(46, :a)] + ze[24,(38, :a)] + ze[24,(53, :b)] + ze[24,(22, :b)] + ze[24,(47, :b)] + ze[24,(14, :b)] + ze[24,(37, :a)] + ze[24,(53, :a)] + ze[24,(22, :a)] + ze[24,(47, :a)] + ze[24,(40, :b)] + ze[24,(3, :a)] + ze[24,(15, :b)] + ze[24,(40, :a)] + ze[24,(35, :b)] + ze[24,(35, :a)] + ze[24,(6, :a)] + ze[24,(52, :b)] + ze[24,(12, :b)] = 1
 x[25] + ze[25,(28, :b)] + ze[25,(23, :b)] + ze[25,(41, :b)] + ze[25,(43, :b)] + ze[25,(11, :b)] + ze[25,(36, :b)] + ze[25,(52, :a)] + ze[25,(12, :a)] + ze[25,(28, :a)] + ze[25,(23, :a)] + ze[25,(41, :a)] + ze[25,(43, :a)] + ze[25,(11, :a)] + ze[25,(36, :a)] + ze[25,(25, :b)] + ze[25,(39, :a)] + ze[25,(10, :b)] + ze[25,(25, :a)] + ze[25,(26, :b)] + ze[25,(42, :b)] + ze[25,(10, :a)] + ze[25,(27, :a)] + ze[25,(26, :a)] + ze[25,(42, :a)] + ze[25,(49, :b)] + ze[25,(20, :a)] + ze[25,(44, :b)] + ze[25,(9, :b)] + ze[25,(31, :b)] + [[...1 terms omitted...]] + ze[25,(49, :a)] + ze[25,(44, :a)] + ze[25,(46, :b)] + ze[25,(9, :a)] + ze[25,(31, :a)] + ze[25,(29, :a)] + ze[25,(38, :b)] + ze[25,(46, :a)] + ze[25,(17, :b)] + ze[25,(53, :b)] + ze[25,(22, :b)] + ze[25,(47, :b)] + ze[25,(14, :b)] + ze[25,(37, :a)] + ze[25,(53, :a)] + ze[25,(22, :a)] + ze[25,(47, :a)] + ze[25,(33, :b)] + ze[25,(40, :b)] + ze[25,(3, :a)] + ze[25,(48, :b)] + ze[25,(15, :b)] + ze[25,(40, :a)] + ze[25,(35, :b)] + ze[25,(35, :a)] + ze[25,(30, :a)] + ze[25,(32, :a)] + ze[25,(6, :a)] + ze[25,(52, :b)] + ze[25,(12, :b)] = 1
 x[26] + ze[26,(37, :b)] + ze[26,(19, :b)] + ze[26,(32, :b)] + ze[26,(31, :b)] + ze[26,(30, :a)] + ze[26,(14, :b)] + ze[26,(32, :a)] + ze[26,(33, :b)] + ze[26,(6, :a)] + ze[26,(50, :b)] + ze[26,(4, :b)] + ze[26,(33, :a)] + ze[26,(25, :a)] + ze[26,(27, :b)] + ze[26,(10, :b)] + ze[26,(48, :a)] + ze[26,(50, :a)] + ze[26,(27, :a)] + ze[26,(26, :a)] = 1
 x[27] + ze[27,(26, :a)] + ze[27,(8, :b)] + ze[27,(19, :b)] + ze[27,(5, :a)] + ze[27,(6, :b)] + ze[27,(16, :a)] + ze[27,(45, :b)] + ze[27,(52, :a)] + ze[27,(24, :a)] + ze[27,(14, :b)] + ze[27,(17, :a)] + ze[27,(1, :a)] + ze[27,(51, :b)] + ze[27,(6, :a)] + ze[27,(41, :a)] + ze[27,(45, :a)] + ze[27,(14, :a)] + ze[27,(4, :b)] + ze[27,(54, :b)] + ze[27,(2, :b)] + ze[27,(27, :b)] + ze[27,(25, :a)] + ze[27,(26, :b)] + ze[27,(5, :b)] + ze[27,(34, :a)] + ze[27,(13, :a)] + ze[27,(15, :a)] + ze[27,(54, :a)] + ze[27,(50, :a)] + ze[27,(27, :a)] + ze[27,(24, :b)] = 1
 x[28] + ze[28,(28, :b)] + ze[28,(47, :b)] + ze[28,(44, :b)] + ze[28,(14, :b)] + ze[28,(53, :a)] + ze[28,(29, :b)] + ze[28,(6, :a)] + ze[28,(46, :b)] + ze[28,(40, :b)] + ze[28,(38, :b)] + ze[28,(27, :a)] + ze[28,(12, :b)] = 1
 x[29] + ze[29,(47, :b)] + ze[29,(41, :b)] + ze[29,(43, :b)] + ze[29,(20, :a)] + ze[29,(44, :b)] + ze[29,(39, :b)] + ze[29,(22, :a)] + ze[29,(29, :b)] + ze[29,(25, :b)] + ze[29,(43, :a)] + ze[29,(46, :b)] + ze[29,(40, :b)] + ze[29,(15, :b)] + ze[29,(29, :a)] + ze[29,(16, :b)] + ze[29,(12, :b)] + ze[29,(18, :a)] = 1
 x[30] + ze[30,(26, :a)] + ze[30,(8, :b)] + ze[30,(5, :a)] + ze[30,(6, :b)] + ze[30,(14, :b)] + ze[30,(6, :a)] + ze[30,(2, :b)] + ze[30,(25, :a)] + ze[30,(5, :b)] + ze[30,(27, :a)] + ze[30,(24, :b)] = 1
 ye[52] = 0
 ye[53] = 0
 ye[54] = 0
 q[52,a] = 0
 q[53,a] = 0
 q[54,a] = 0
Gurobi Optimizer version 12.0.1 build v12.0.1rc0 (linux64 - "Debian GNU/Linux 12 (bookworm)")

CPU model: Intel(R) Xeon(R) Gold 5122 CPU @ 3.60GHz, instruction set [SSE2|AVX|AVX2|AVX512]
Thread count: 8 physical cores, 16 logical processors, using up to 1 threads

Non-default parameters:
TimeLimit  7198.389721
Threads  1

Optimize a model with 1589 rows, 1438 columns and 4530 nonzeros
Model fingerprint: 0xbade228c
Model has 1162 simple general constraints
  1162 INDICATOR
Variable types: 138 continuous, 1300 integer (1300 binary)
Coefficient statistics:
  Matrix range     [3e-01, 1e+00]
  Objective range  [1e+00, 1e+00]
  Bounds range     [3e-01, 1e+00]
  RHS range        [1e-06, 1e+00]
  GenCon rhs range [9e-04, 1e+00]
  GenCon coe range [1e+00, 1e+00]
Presolve added 583 rows and 0 columns
Presolve removed 0 rows and 196 columns
Presolve time: 0.08s
Presolved: 2172 rows, 1242 columns, 11346 nonzeros
Variable types: 80 continuous, 1162 integer (1158 binary)
Found heuristic solution: objective 51.0000000
Found heuristic solution: objective 50.0000000
Found heuristic solution: objective 24.0000000
Found heuristic solution: objective 23.0000000

Root relaxation: objective 1.250691e+00, 961 iterations, 0.02 seconds (0.03 work units)

    Nodes    |    Current Node    |     Objective Bounds      |     Work
 Expl Unexpl |  Obj  Depth IntInf | Incumbent    BestBd   Gap | It/Node Time

     0     0    1.25069    0  128   23.00000    1.25069  94.6%     -    0s
H    0     0                      16.0000000    1.25069  92.2%     -    0s
H    0     0                      13.0000000    1.25069  90.4%     -    0s
H    0     0                      12.0000000    1.25069  89.6%     -    0s
H    0     0                      11.0000000    1.25069  88.6%     -    0s
H    0     0                      10.0000000    1.25069  87.5%     -    0s
     0     0    1.74338    0  173   10.00000    1.74338  82.6%     -    0s
H    0     0                       7.0000000    1.78583  74.5%     -    0s
H    0     0                       6.0000000    1.78583  70.2%     -    0s
     0     0    1.79037    0  201    6.00000    1.79037  70.2%     -    0s
     0     0    1.79037    0  200    6.00000    1.79037  70.2%     -    0s
     0     0    2.04387    0  225    6.00000    2.04387  65.9%     -    0s
     0     0    2.04471    0  237    6.00000    2.04471  65.9%     -    0s
     0     0    2.04471    0  212    6.00000    2.04471  65.9%     -    0s
     0     0    2.34460    0  249    6.00000    2.34460  60.9%     -    0s
H    0     0                       5.0000000    2.37971  52.4%     -    0s
     0     0    2.40817    0  243    5.00000    2.40817  51.8%     -    0s
     0     0    2.42150    0  200    5.00000    2.42150  51.6%     -    0s
     0     0    2.42150    0  199    5.00000    2.42150  51.6%     -    0s
     0     0    2.59574    0  155    5.00000    2.59574  48.1%     -    0s
     0     0    2.61111    0  161    5.00000    2.61111  47.8%     -    0s
     0     0    2.61111    0  139    5.00000    2.61111  47.8%     -    0s
     0     0    2.61111    0  159    5.00000    2.61111  47.8%     -    0s
     0     0    2.62083    0  204    5.00000    2.62083  47.6%     -    0s
     0     0    2.62083    0  165    5.00000    2.62083  47.6%     -    0s
     0     0    2.62083    0  194    5.00000    2.62083  47.6%     -    0s
     0     0    2.62083    0  199    5.00000    2.62083  47.6%     -    0s
     0     0    2.62083    0  181    5.00000    2.62083  47.6%     -    0s
     0     0    2.62083    0  154    5.00000    2.62083  47.6%     -    0s
     0     0    2.62083    0  204    5.00000    2.62083  47.6%     -    0s
     0     0    2.62083    0  202    5.00000    2.62083  47.6%     -    0s
     0     0    2.62083    0  179    5.00000    2.62083  47.6%     -    1s
     0     2    2.62093    0  166    5.00000    2.62093  47.6%     -    1s
   917   375    4.00000   22  283    5.00000    3.15000  37.0%  60.6    5s
  1310   353    4.00000   33   30    5.00000    3.29927  34.0%  87.3   10s
  2081    51     cutoff   33         5.00000    4.00000  20.0%  96.1   15s

Cutting planes:
  Learned: 2
  Gomory: 1
  Cover: 54
  Implied bound: 10
  Clique: 1
  MIR: 35
  StrongCG: 1
  Flow cover: 17
  GUB cover: 39
  Zero half: 12
  RLT: 15
  Relax-and-lift: 1

Explored 2839 nodes (277545 simplex iterations) in 18.21 seconds (18.74 work units)
Thread count was 1 (of 16 available processors)

Solution count 10: 5 6 7 ... 24

Optimal solution found (tolerance 1.00e-04)
Best objective 5.000000000000e+00, best bound 5.000000000000e+00, gap 0.0000%

User-callback calls 12419, time in user-callback 0.01 sec

 sepatime0 0 0
5.0Stat(MathOptInterface.OPTIMAL, 5.0, 5.0, 0.0, 0.0, 1.610279, 18.20871901512146, 2839, Main.CFLG.LEFPAI, "", #undef)
